1,1,5,3,20,1,16,2,7,2,2,1,19,3,18,1,13,1,10,3,14,2,4,2,12,2,9,1,8,3,9,2,11,3,3,2,3,3,6,4;7,1,1,2,16,1,17,3,20,2,19,1,15,2,10,1,2,2,18,2,4,1,13,3,11,1,14,3,6,2,8,2,12,3,3,1,9,4;5,1,5,2,17,2,6,1,15,1,20,3,1,3,14,1,10,2,7,3,13,2,12,1,18,4,8,1,15,4,2,4,4,4,9,3,1,5,9,5,16,5,11,5;5,4,17,4,16,3,20,4,1,4,19,4,2,3,7,4,10,4,13,4,11,2,14,4,12,4,15,5,4,5,18,5,8,4,3,5,6,5;17,1,5,5,19,2,15,3,17,5,20,5,16,4,18,3,19,5,10,5,4,3,7,5,6,3,13,5,2,5,14,5,12,5,11,4,3,4,8,5;
